100
1000
200
199
198
198
198
198
198
197
197
196
196
196
195
194
192
192
191
191
191
191
188
188
187
187
187
187
187
187
186
186
186
186
185
184
184
183
183
183
182
182
182
181
181
181
180
179
178
175
175
174
174
174
173
172
171
171
170
170
170
169
169
168
168
167
167
167
167
166
166
166
166
166
165
162
160
160
160
159
158
158
158
158
157
157
157
156
156
154
153
151
151
151
151
151
151
150
150
150
150
150
